NAME: instance_1563
TYPE: TSP
DIMENSION: 20
EDGE_WEIGHT_TYPE: EUC_2D
NODE_COORD_SECTION
0 10.01 78.67
1 84.89 59.30
2 14.39 52.01
3 10.45 71.06
4 0.80 38.88
5 11.30 65.96
6 23.35 32.52
7 71.90 81.69
8 75.83 38.84
9 46.23 20.90
10 59.57 91.32
11 85.71 76.91
12 51.54 21.19
13 47.61 65.44
14 92.66 30.64
15 68.04 62.70
16 1.82 70.07
17 19.49 80.67
18 58.81 96.87
19 94.45 71.41
EOF
